VRPTWMS/instances/mip/toDelete/freight_old/5/N5-C_DV10-C_SV50_F12_9_No_1.log

Gurobi 6.0.4 (win64) logging started 06/13/15 23:06:54

Warning: unknown variable 'kDash_dN' in bounds section
Read LP format model from file C:\MT\repository\VRPTWMS\instances\mip\freight\N5-C_DV10-C_SV50_F12_9_No_1.lp
Reading time = 0.00 seconds
(null): 161 rows, 110 columns, 603 nonzeros
Optimize a model with 161 rows, 110 columns and 603 nonzeros
Model has 180 quadratic constraints
WARNING: Only barrier available for SOCP models
Coefficient statistics:
  Matrix range    [1e+00, 1e+02]
  Objective range [6e+00, 1e+03]
  Bounds range    [1e+00, 1e+02]
  RHS range       [1e+00, 1e+02]
Presolve removed 18 rows and 7 columns
Presolve time: 0.02s
Presolved: 618 rows, 353 columns, 2690 nonzeros
Variable types: 225 continuous, 128 integer (94 binary)
Found heuristic solution: objective 5259.4400000
Optimize a model with 618 rows, 353 columns and 2690 nonzeros
Coefficient statistics:
  Matrix range    [1e+00, 1e+02]
  Objective range [6e+00, 1e+03]
  Bounds range    [1e+00, 1e+02]
  RHS range       [1e+00, 1e+02]
Presolve removed 36 rows and 20 columns
Presolved: 582 rows, 335 columns, 2534 nonzeros


Root relaxation: objective 8.984171e+01, 50 iterations, 0.00 seconds

    Nodes    |    Current Node    |     Objective Bounds      |     Work
 Expl Unexpl |  Obj  Depth IntInf | Incumbent    BestBd   Gap | It/Node Time

     0     0   89.84171    0   28 5259.44000   89.84171  98.3%     -    0s
H    0     0                    3194.7400000   89.84171  97.2%     -    0s
     0     0  110.96250    0   29 3194.74000  110.96250  96.5%     -    0s
     0     0  113.26946    0   43 3194.74000  113.26946  96.5%     -    0s
     0     0  113.29300    0   47 3194.74000  113.29300  96.5%     -    0s
     0     0  113.31907    0   45 3194.74000  113.31907  96.5%     -    0s
     0     0  113.31907    0   48 3194.74000  113.31907  96.5%     -    0s
     0     0  113.31907    0   49 3194.74000  113.31907  96.5%     -    0s
     0     0  113.31907    0   49 3194.74000  113.31907  96.5%     -    0s
     0     2  113.31907    0   49 3194.74000  113.31907  96.5%     -    0s
*   77    53              16    2265.1300000  121.72819  94.6%  29.8    0s
H  198   103                    2199.3400000  134.95885  93.9%  28.9    0s
H 1051   175                    2186.8100000  351.88055  83.9%  32.7    0s
H 1221   194                    2179.9900000  504.42850  76.9%  31.8    0s
H 1643   194                    2176.8700000 1079.42525  50.4%  31.5    1s

Cutting planes:
  Gomory: 4
  Cover: 61
  Implied bound: 85
  Clique: 11
  MIR: 49
  Flow cover: 7
  Zero half: 3

Explored 3517 nodes (97951 simplex iterations) in 1.99 seconds
Thread count was 2 (of 4 available processors)

Optimal solution found (tolerance 1.00e-04)
Best objective 2.176870000000e+03, best bound 2.176870000000e+03, gap 0.0%
k_c1	10.0
k_c2	5.0
k_c3	2.0
k_c4	4.0
k_c5	1.0
k_dN	0.0
kDash_c1	5.0
kDash_c2	1.0
kDash_c3	0.0
kDash_c4	2.0
kDash_c5	4.0
kDash_dN	-0.0
o_1	0.0
o_2	-0.0
o_3	1.0
o_4	0.0
o_5	1.0
p_1	0.0
p_2	-0.0
p_3	1.0
p_4	0.0
p_5	1.0
phi_c1	10.0
phi_c2	9.0
phi_c3	3.0
phi_c4	6.0
phi_c5	7.0
phi_d0	12.0
phi_dN	-0.0
pi_c1	3.0
pi_c2	7.0
pi_c3	8.0
pi_c4	6.0
pi_c5	18.0
pi_dN	-0.0
tauD_c1	22.0
tauD_c2	30.0
tauD_c3	68.0
tauD_c4	56.0
tauD_c5	42.0
tauD_d0	-0.0
tauD_dN	100.0
tauS_c1	7.0
tauS_c2	25.0
tauS_c3	57.0
tauS_c4	83.0
tauS_c5	12.0
tauS_d0	-0.0
tauS_dN	79.0
x_c1_c2	1.0
x_c2_c5	1.0
x_c3_dN	1.0
x_c4_c3	1.0
x_c5_c4	1.0
x_d0_c1	1.0
z_c3_dN	1.0
z_c5_c3	1.0
z_d0_c5	1.0
